WARNING: for repeatability, setting FPU to use double precision
============================[ Problem Statistics ]=============================
|                                                                             |
|  Number of variables:        228894                                         |
|  Number of clauses:          518561                                         |
|  Parse time:                   0.17 s                                       |
|                                                                             |
============================[ Search Statistics ]==============================
| Conflicts |          ORIGINAL         |          LEARNT          | Progress |
|           |    Vars  Clauses Literals |    Limit  Clauses Lit/Cl |          |
===============================================================================
|       100 |  124618   494806  1113230 |   181428      100     15 | 45.556 % |
|       250 |  124618   494806  1113230 |   199571      250     15 | 45.556 % |
|       475 |  124618   494806  1113230 |   219528      475     24 | 45.556 % |
===============================================================================
restarts              : 6
conflicts             : 698            (923 /sec)
decisions             : 19831          (0.00 % random) (26230 /sec)
propagations          : 3363837        (4449243 /sec)
conflict literals     : 19223          (3.89 % deleted)
Memory used           : 57.00 MB
CPU time              : 0.756047 s

SATISFIABLE
